SCIP Status        : solving was interrupted [time limit reached]
Total Time         :    3600.01
  solving          :    3600.01
  presolving       :       0.07 (included in solving)
  reading          :       0.00
  copying          :       0.14 (32 #copies) (minimal 0.00, maximal 0.01, average 0.00)
Original Problem   :
  Problem name     : hda
  Variables        : 722 (13 binary, 0 integer, 0 implicit integer, 709 continuous)
  Constraints      : 718 initial, 718 maximal
  Objective        : minimize, 42 non-zeros (abs.min = 0.375, abs.max = 10149)
Presolved Problem  :
  Problem name     : t_hda
  Variables        : 819 (7 binary, 0 integer, 0 implicit integer, 812 continuous)
  Constraints      : 373 initial, 378 maximal
  Objective        : minimize, 38 non-zeros (abs.min = 0.7, abs.max = 25500)
  Nonzeros         : 1318 constraint, 0 clique table
Presolvers         :   ExecTime  SetupTime  Calls  FixedVars   AggrVars   ChgTypes  ChgBounds   AddHoles    DelCons    AddCons   ChgSides   ChgCoefs
  boundshift       :       0.00       0.00      0          0          0          0          0          0          0          0          0          0
  convertinttobin  :       0.00       0.00      0          0          0          0          0          0          0          0          0          0
  domcol           :       0.00       0.00      2          0          0          0          0          0          0          0          0          0
  dualagg          :       0.00       0.00      0          0          0          0          0          0          0          0          0          0
  dualcomp         :       0.00       0.00      2          0          0          0          0          0          0          0          0          0
  dualinfer        :       0.00       0.00      0          0          0          0          0          0          0          0          0          0
  dualsparsify     :       0.00       0.00      1          0          0          0          0          0          0          0          0          0
  gateextraction   :       0.00       0.00      0          0          0          0          0          0          0          0          0          0
  implics          :       0.00       0.00      6          0          0          0          0          0          0          0          0          0
  inttobinary      :       0.00       0.00      0          0          0          0          0          0          0          0          0          0
  qpkktref         :       0.00       0.00      0          0          0          0          0          0          0          0          0          0
  redvub           :       0.00       0.00      0          0          0          0          0          0          0          0          0          0
  sparsify         :       0.00       0.00      1          0          0          0          0          0          0          0          0          0
  stuffing         :       0.00       0.00      0          0          0          0          0          0          0          0          0          0
  trivial          :       0.00       0.00     14         22          0          0          0          0          0          0          0          0
  tworowbnd        :       0.00       0.00      0          0          0          0          0          0          0          0          0          0
  dualfix          :       0.00       0.00     14          0          0          0          0          0          0          0          0          0
  genvbounds       :       0.00       0.00      0          0          0          0          0          0          0          0          0          0
  probing          :       0.01       0.00      2          0          0          0         60          0          0          0          0          0
  pseudoobj        :       0.00       0.00      0          0          0          0          0          0          0          0          0          0
  symmetry         :       0.00       0.00      1          0          0          0          0          0          0          0          0          0
  vbounds          :       0.00       0.00      0          0          0          0          0          0          0          0          0          0
  varbound         :       0.00       0.00     10          0          0          0          2          0          4          0          0          1
  linear           :       0.01       0.00     19         65        260          0        342          0        328          0         62         67
  nonlinear        :       0.05       0.00     22          0          0          0        106          0         13          0          0        -68
  benders          :       0.00       0.00      0          0          0          0          0          0          0          0          0          0
  components       :       0.00       0.00      1          0          0          0          0          0          0          0          0          0
  root node        :          -          -      -          0          -          -        716          -          -          -          -          -
Constraints        :     Number  MaxNumber  #Separate #Propagate    #EnfoLP    #EnfoRelax  #EnfoPS    #Check   #ResProp    Cutoffs    DomReds       Cuts    Applied      Conss   Children
  benderslp        :          0          0          0          0     224988          0          0      24854          0          0          0          0          0          0          0
  integral         :          0          0          0          0     224988          0          0      24854          0          0       1585          0          0          9       3444
  varbound         :         18         18         27     343770          0          0          0      24849          0          0      15077          0          0          0          0
  linear           :        219+       225         27     345682          0          0          0      24680          0       1059    2713616          0          0          0          0
  nonlinear        :        136        136     292270     344623     223234          0          0      24679          0       3120    3601313    1962176    1542534          0      74092
  benders          :          0          0          0          0          0          0          0         53          0          0          0          0          0          0          0
  countsols        :          0          0          0          0          0          0          0         53          0          0          0          0          0          0          0
  components       :          0          0          0          0          0          0          0          0          0          0          0          0          0          0          0
Constraint Timings :  TotalTime  SetupTime   Separate  Propagate     EnfoLP     EnfoPS     EnfoRelax   Check    ResProp    SB-Prop
  benderslp        :       0.11       0.00       0.00       0.00       0.11       0.00       0.00       0.00       0.00       0.00
  integral         :       0.49       0.00       0.00       0.00       0.49       0.00       0.00       0.00       0.00       0.00
  varbound         :       0.20       0.00       0.00       0.15       0.00       0.00       0.00       0.05       0.00       0.00
  linear           :       9.92       0.00       0.00       9.75       0.00       0.00       0.00       0.14       0.00       0.02
  nonlinear        :    2356.68       0.00    1301.69      27.04    1025.46       0.00       0.00       2.44       0.00       0.05
  benders          :       0.00       0.00       0.00       0.00       0.00       0.00       0.00       0.00       0.00       0.00
  countsols        :       0.00       0.00       0.00       0.00       0.00       0.00       0.00       0.00       0.00       0.00
  components       :       0.02       0.00       0.00       0.02       0.00       0.00       0.00       0.00       0.00       0.00
Propagators        : #Propagate   #ResProp    Cutoffs    DomReds
  dualfix          :          9          0          0          0
  genvbounds       :     178056          0         66     770664
  nlobbt           :          0          0          0          0
  obbt             :          5          0          0         97
  probing          :          0          0          0          0
  pseudoobj        :     569299          0          0        265
  redcost          :     613681          0          0          0
  rootredcost      :          6          0          0         53
  symmetry         :          0          0          0          0
  vbounds          :       5666          0          0          0
Propagator Timings :  TotalTime  SetupTime   Presolve  Propagate    ResProp    SB-Prop
  dualfix          :       0.00       0.00       0.00       0.00       0.00       0.00
  genvbounds       :       4.13       0.00       0.00       4.13       0.00       0.00
  nlobbt           :       0.00       0.00       0.00       0.00       0.00       0.00
  obbt             :       2.20       0.00       0.00       2.20       0.00       0.00
  probing          :       0.01       0.00       0.01       0.00       0.00       0.00
  pseudoobj        :       2.62       0.00       0.00       2.62       0.00       0.00
  redcost          :       6.75       0.00       0.00       6.75       0.00       0.00
  rootredcost      :       0.22       0.00       0.00       0.22       0.00       0.00
  symmetry         :       0.05       0.00       0.00       0.05       0.00       0.00
  vbounds          :       0.27       0.00       0.00       0.27       0.00       0.00
Conflict Analysis  :       Time      Calls    Success    DomReds  Conflicts   Literals    Reconvs ReconvLits   Dualrays   Nonzeros   LP Iters   (pool size: [--,--])
  propagation      :       0.00          0          0          -          0        0.0          0        0.0          -          -          -
  infeasible LP    :       0.01         79          6          -          0        0.0          0        0.0          6        3.8          0
  bound exceed. LP :       0.89       3356         13          -          0        0.0          0        0.0         13       86.0         40
  strong branching :       0.00          0          0          -          0        0.0          0        0.0          -          -          0
  pseudo solution  :       0.00          0          0          -          0        0.0          0        0.0          -          -          -
  applied globally :       0.00          -          -          0          0        0.0          -          -          6          -          -
  applied locally  :          -          -          -          0          0        0.0          -          -         13          -          -
Separators         :   ExecTime  SetupTime      Calls  RootCalls    Cutoffs    DomReds  FoundCuts ViaPoolAdd  DirectAdd    Applied ViaPoolApp  DirectApp      Conss
  cut pool         :       0.02          -      17249         52          -          -        180        482          -          -          -          -          -    (maximal pool size:         78)
  aggregation      :       0.10       0.00        110         27          0          0         68        192          0        133        133          0          0
  > cmir           :          -          -          -          -          -          -          -        106          0         63         63          0          -
  > flowcover      :          -          -          -          -          -          -          -         86          0         70         70          0          -
  > knapsackcover  :          -          -          -          -          -          -          -          0          0          0          0          0          -
  cgmip            :       0.00       0.00          0          0          0          0          0          0          0          0          0          0          0
  clique           :       0.00       0.00          1          1          0          0          0          0          0          0          0          0          0
  closecuts        :       0.00       0.00          0          0          0          0          0          0          0          0          0          0          0
  convexproj       :       0.00       0.00          0          0          0          0          0          0          0          0          0          0          0
  disjunctive      :       0.00       0.00          0          0          0          0          0          0          0          0          0          0          0
  eccuts           :       0.00       0.00          0          0          0          0          0          0          0          0          0          0          0
  gauge            :       0.00       0.00          0          0          0          0          0          0          0          0          0          0          0
  gomory           :       0.02       0.00         93         10          0          0         27         79          0         62         62          0          0
  > gomorymi       :          -          -          -          -          -          -          -         79          0         62         62          0          -
  > strongcg       :          -          -          -          -          -          -          -          0          0          0          0          0          -
  impliedbounds    :       0.01       0.00        110         27          0          0         84        211          0         77         77          0          0
  interminor       :       0.00       0.00          0          0          0          0          0          0          0          0          0          0          0
  intobj           :       0.00       0.00          0          0          0          0          0          0          0          0          0          0          0
  mcf              :       0.00       0.00          1          1          0          0          0          0          0          0          0          0          0
  minor            :       0.00       0.00          0          0          0          0          0          0          0          0          0          0          0
  mixing           :       0.27       0.00       3732         27          0          0          0          0          0          0          0          0          0
  oddcycle         :       0.00       0.00          0          0          0          0          0          0          0          0          0          0          0
  rapidlearning    :       0.00       0.00          0          0          0          0          0          0          0          0          0          0          0
  rlt              :       0.00       0.00         10         10          0          0          1          0          0          0          0          0          0
  zerohalf         :       0.03       0.00        103         20          0          0          0          0          0          0          0          0          0
Cutselectors       :   ExecTime  SetupTime      Calls  RootCalls   Selected     Forced   Filtered  RootSelec   RootForc   RootFilt 
  hybrid           :       1.59       0.00     261022         27    1312898        389     235839        528          0        184
Pricers            :   ExecTime  SetupTime      Calls       Vars
  problem variables:       0.00          -          0          0
Branching Rules    :   ExecTime  SetupTime   BranchLP  BranchExt   BranchPS    Cutoffs    DomReds       Cuts      Conss   Children
  allfullstrong    :       0.00       0.00          0          0          0          0          0          0          0          0
  cloud            :       0.00       0.00          0          0          0          0          0          0          0          0
  distribution     :       0.00       0.00          0          0          0          0          0          0          0          0
  fullstrong       :       0.00       0.00          0          0          0          0          0          0          0          0
  inference        :       0.00       0.00          0          0          0          0          0          0          0          0
  leastinf         :       0.00       0.00          0          0          0          0          0          0          0          0
  lookahead        :       0.00       0.00          0          0          0          0          0          0          0          0
  mostinf          :       0.00       0.00          0          0          0          0          0          0          0          0
  multaggr         :       0.00       0.00          0          0          0          0          0          0          0          0
  nodereopt        :       0.00       0.00          0          0          0          0          0          0          0          0
  pscost           :       0.00       0.00          0          0          0          0          0          0          0          0
  random           :       0.00       0.00          0          0          0          0          0          0          0          0
  relpscost        :       0.40       0.00       1754          0          0          0       1585          0          9       3444
  vanillafullstrong:       0.00       0.00          0          0          0          0          0          0          0          0
Primal Heuristics  :   ExecTime  SetupTime      Calls      Found       Best
  LP solutions     :       0.00          -          -          0          0
  relax solutions  :       0.00          -          -          0          0
  pseudo solutions :       0.00          -          -          0          0
  strong branching :       0.00          -          -          0          0
  actconsdiving    :       0.00       0.00          0          0          0
  adaptivediving   :       1.12       0.00       1899          0          0
  alns             :       5.95       0.00          9          0          0
  bound            :       0.00       0.00          0          0          0
  clique           :       0.00       0.00          0          0          0
  coefdiving       :       0.00       0.00          0          0          0
  completesol      :       0.00       0.00          0          0          0
  conflictdiving   :       0.51       0.00       2088          0          0
  crossover        :     143.02       0.00          5          0          0
  dins             :       0.00       0.00          0          0          0
  distributiondivin:       0.51       0.00          4          0          0
  dps              :       0.00       0.00          0          0          0
  dualval          :       0.00       0.00          0          0          0
  farkasdiving     :       0.01       0.00          1          0          0
  feaspump         :       0.01       0.00          1          0          0
  fixandinfer      :       0.00       0.00          0          0          0
  fracdiving       :       0.40       0.00       2105          0          0
  gins             :       0.03       0.00          0          0          0
  guideddiving     :       0.56       0.00       2056          0          0
  indicator        :       0.19       0.00          0          0          0
  indicatordiving  :       0.00       0.00          0          0          0
  intdiving        :       0.00       0.00          0          0          0
  intshifting      :       0.00       0.00          4          0          0
  linesearchdiving :       0.47       0.00       2050          0          0
  localbranching   :       0.00       0.00          0          0          0
  locks            :       0.03       0.00          1          0          0
  lpface           :       0.04       0.00          1          0          0
  mpec             :      38.34       0.00         11          0          0
  multistart       :       0.00       0.00          0          0          0
  mutation         :       0.00       0.00          0          0          0
  nlpdiving        :       1.70       0.00          7          0          0
  objpscostdiving  :       0.02       0.00          2          0          0
  octane           :       0.00       0.00          0          0          0
  ofins            :       0.02       0.00          0          0          0
  oneopt           :       0.06       0.00          6          0          0
  padm             :       0.00       0.00          0          0          0
  proximity        :       0.00       0.00          0          0          0
  pscostdiving     :       0.03       0.00          4          0          0
  randrounding     :       0.03       0.00        168          0          0
  rens             :       0.00       0.00          0          0          0
  reoptsols        :       0.00       0.00          0          0          0
  repair           :       0.00       0.00          0          0          0
  rins             :      34.23       0.00         18          1          1
  rootsoldiving    :       0.04       0.00          3          0          0
  rounding         :       0.23       0.00        850          0          0
  shiftandpropagate:       0.00       0.00          1          0          0
  shifting         :       0.03       0.00        209          0          0
  simplerounding   :       0.34       0.00     392128          0          0
  subnlp           :      35.47       0.00         79         51          5
  trivial          :       0.00       0.00          2          0          0
  trivialnegation  :       0.00       0.00          0          0          0
  trustregion      :       0.00       0.00          0          0          0
  trysol           :       0.10       0.00          0          0          0
  twoopt           :       0.00       0.00          0          0          0
  undercover       :       0.03       0.00          1          0          0
  vbounds          :       0.00       0.00          0          0          0
  veclendiving     :       0.39       0.00       2084          0          0
  zeroobj          :       0.00       0.00          0          0          0
  zirounding       :       0.08       0.00       1000          0          0
  other solutions  :          -          -          -          0          -
Expressions        :   #IntEval  IntEvalTi   #RevProp  RevPropTi    DomReds    Cutoffs  #Estimate  EstimTime  Branching  #Simplify SimplifyTi Simplified
  exp              :     131693       0.04       2348       0.00          0          0     227549       0.05      81474         37       0.00          0
  log              :     182822       0.06      73287       0.02        481          0    1401432       0.31     616709         87       0.00          4
  pow              :    1556254       0.53     108454       0.07      22675          0    2529751       1.06     730500        317       0.00         25
  prod             :    5736400       1.23    2150371       1.20     188884        189   48549047    1649.73   19431519        897       0.00        364
  sum              :    4246574       1.19    2700305       1.30     987876          0        162       0.00          0       1244       0.00        474
  val              :          5       0.00          0       0.00          0          0          0       0.00          0          0       0.00          0
  var              :    4195767       0.24          0       0.00          0          0          0       0.00          0       1982       0.00        152
  varidx           :          0       0.00          0       0.00          0          0          0       0.00          0          0       0.00          0
Nlhdlrs            :    Detects  DetectAll DetectTime   #IntEval  IntEvalTi   #RevProp  RevPropTi    DomReds    Cutoffs   #Enforce   EnfoTime       Cuts  Branching
  soc              :          0          0       0.00          0       0.00          0       0.00          0          0          0       0.00          0          0
  convex           :         78         78       0.00          0       0.00          0       0.00          0          0   10318814      12.78     984921          0
  concave          :         75         75       0.00          0       0.00          0       0.00          0          0   12601187      22.29      47245          0
  signomial        :         40         40       0.00          0       0.00          0       0.00          0          0   27639418      96.20     210613          0
  quotient         :          8          8       0.00          0       0.00          0       0.00          0          0    2181537       4.04       1139          0
  quadratic        :         17        393       0.00     730349       0.85     725660       1.69     264055          3          0       0.00          0          0
  default          :        789      17338       0.00   11848477       3.85    5035857       7.02    1199916        189   52707730    1736.43     709161          0
  bilinear         :        137        137       0.00    3756803       0.49    1593343       0.73       2019          0   29723387       5.93       3094          0
  perspective      :         15         15       0.00          0       0.00          0       0.00        282          0    6722208      40.57      11925      84575
LP                 :       Time      Calls Iterations  Iter/call   Iter/sec  Time-0-It Calls-0-It    ItLimit
  primal LP        :     120.27      57399         23       1.77       0.19     120.23      57386
  dual LP          :     661.01     399110    2852518       7.56    4315.41      35.01      21765
  lex dual LP      :       0.00          0          0       0.00          -
  barrier LP       :       0.00          0          0       0.00          -       0.00          0
  resolve instable :       0.00          0          0       0.00          -
  diving/probing LP:       2.18        429      36663      85.46   16832.04
  strong branching :       0.20         62       1025      16.53    5045.23          -          -          5
    (at root node) :          -          3        235      78.33          -
  conflict analysis:       0.00          2         40      20.00          -
NLP relaxation     :
  solve time       :       1.69 (7 calls)
  convexity        :  nonconvex (237 linear rows, 0 convex ineq., 0 nonconvex ineq., 136 nonlinear eq. or two-sided ineq.)
NLP Solvers        :  #Problems  ProblemTi    #Solves  SolveTime      #Iter  Time/Iter      #Okay #TimeLimit #IterLimit #LObjLimit #Interrupt  #NumError #EvalError  #OutOfMem #LicenseEr #OtherTerm   #GlobOpt    #LocOpt  #Feasible #LocInfeas #GlobInfea #Unbounded   #Unknown
  ipopt            :         92       1.13        114      72.32      13636       0.01        106          0          8          0          0          0          0          0          0          0          0         82          1         17          0          0         14
B&B Tree           :
  number of runs   :          1
  nodes            :      49508 (38768 internal, 10740 leaves)
  feasible leaves  :          0
  infeas. leaves   :       4293
  objective leaves :       6446
  nodes (total)    :      49508 (38768 internal, 10740 leaves)
  nodes left       :      27790
  max depth        :         74
  max depth (total):         74
  backtracks       :       6919 (14.0%)
  early backtracks :          0 (0.0%)
  nodes exc. ref.  :          0 (0.0%)
  delayed cutoffs  :          0
  repropagations   :          3 (0 domain reductions, 0 cutoffs)
  avg switch length:       5.93
  switching time   :      64.38
Root Node          :
  First LP value   : -7.12010592656863e+03
  First LP Iters   :        479 (44574.73 Iter/sec)
  First LP Time    :       0.01
  Final Dual Bound : -6.79147110528919e+03
  Final Root Iters :       1780
  Root LP Estimate : -6.72650437053504e+03
Solution           :
  Solutions found  :         52 (6 improvements)
  First Solution   : -4.52326215834043e+03   (in run 1, after 1 nodes, 7.23 seconds, depth 0, found by <farkasdiving>)
  Gap First Sol.   :      53.47 %
  Gap Last Sol.    :      13.17 %
  Primal Bound     : -5.96453439426844e+03   (in run 1, after 5548 nodes, 262.59 seconds, depth 22, found by <adaptivediving>)
  Dual Bound       : -6.70977284009866e+03
  Gap              :      12.49 %
Integrals          :      Total       Avg%
  primal-dual      :   45436.78      12.62
  primal-ref       :          -          - (not evaluated)
  dual-ref         :          -          - (not evaluated)
